p cnf 136 159
-1 9 -2 -3 133 0 
-4 34 -2 -5 6 133 0 
-6 5 -7 133 0 
-8 19 22 24 33 47 50 55 68 70 72 85 92 101 102 111 113 132 133 0 
-9 1 -2 -5 6 133 0 
-10 -5 6 -11 133 0 
-12 76 77 114 122 133 0 
-13 23 99 -14 130 -15 30 32 75 83 105 126 129 134 -54 -133 0 
-16 42 44 78 123 -17 134 -54 -133 0 
-18 95 134 -54 -133 0 
-16 42 44 78 123 133 0 
-19 8 22 24 33 47 50 55 68 70 72 85 92 101 102 111 113 132 133 0 
-16 42 44 78 123 -20 21 -3 133 0 
-21 20 -22 8 19 24 33 47 50 55 68 70 72 85 92 101 102 111 113 132 133 0 
-23 13 99 -4 34 133 0 
-24 8 19 22 33 47 50 55 68 70 72 85 92 101 102 111 113 132 133 0 
-25 37 38 39 40 49 59 110 118 119 120 -4 34 133 0 
-26 82 -11 133 0 
-27 65 125 -26 82 133 0 
-27 65 125 -26 82 135 -133 0 
-28 103 124 -26 82 136 -58 -133 0 
-29 57 89 109 -26 82 134 -54 -133 0 
-30 15 32 75 83 105 126 129 -26 82 133 0 
-31 -32 15 30 75 83 105 126 129 -33 8 19 22 24 47 50 55 68 70 72 85 92 101 102 111 113 132 133 0 
-34 4 133 0 
-35 133 0 
-36 46 64 67 -26 82 133 0 
-37 25 38 39 40 49 59 110 118 119 120 133 0 
-38 25 37 39 40 49 59 110 118 119 120 133 0 
-39 25 37 38 40 49 59 110 118 119 120 133 0 
-40 25 37 38 39 49 59 110 118 119 120 133 0 
-3 133 0 
-41 -3 133 0 
-2 -3 133 0 
-42 16 44 78 123 133 0 
-43 133 0 
-44 16 42 78 123 -26 82 133 0 
-45 -2 133 0 
-46 36 64 67 -35 -25 37 38 39 40 49 59 110 118 119 120 133 0 
-46 36 64 67 -47 8 19 22 24 33 50 55 68 70 72 85 92 101 102 111 113 132 133 0 
-48 -49 25 37 38 39 40 59 110 118 119 120 -50 8 19 22 24 33 47 55 68 70 72 85 92 101 102 111 113 132 133 0 
-51 133 0 
-35 -52 84 88 117 133 0 
-34 4 -25 37 38 39 40 49 59 110 118 119 120 -53 69 80 91 96 133 0 
-54 133 0 
-55 8 19 22 24 33 47 50 68 70 72 85 92 101 102 111 113 132 133 0 
-25 37 38 39 40 49 59 110 118 119 120 -56 61 90 112 115 121 131 133 0 
-4 34 -25 37 38 39 40 49 59 110 118 119 120 133 0 
-57 29 89 109 -26 82 133 0 
-25 37 38 39 40 49 59 110 118 119 120 -45 133 0 
-48 -49 25 37 38 39 40 59 110 118 119 120 -44 16 42 78 123 133 0 
-36 46 64 67 133 0 
-58 -59 25 37 38 39 40 49 110 118 119 120 -60 133 0 
-58 -46 36 64 67 -61 56 90 112 115 121 131 -26 82 133 0 
-62 -26 82 133 0 
-25 37 38 39 40 49 59 110 118 119 120 -63 104 133 0 
-64 36 46 67 -42 16 44 78 123 -26 82 133 0 
-65 27 125 -26 82 133 0 
-4 34 -66 107 133 0 
-67 36 46 64 133 0 
-25 37 38 39 40 49 59 110 118 119 120 133 0 
-48 -49 25 37 38 39 40 59 110 118 119 120 -68 8 19 22 24 33 47 50 55 70 72 85 92 101 102 111 113 132 133 0 
-4 34 -2 133 0 
-35 -69 53 80 91 96 133 0 
-70 8 19 22 24 33 47 50 55 68 72 85 92 101 102 111 113 132 133 0 
-34 4 -25 37 38 39 40 49 59 110 118 119 120 133 0 
-71 133 0 
-57 29 89 109 -4 34 -25 37 38 39 40 49 59 110 118 119 120 133 0 
-28 103 124 -27 65 125 -25 37 38 39 40 49 59 110 118 119 120 -26 82 133 0 
-33 8 19 22 24 47 50 55 68 70 72 85 92 101 102 111 113 132 133 0 
-72 8 19 22 24 33 47 50 55 68 70 85 92 101 102 111 113 132 133 0 
-73 100 133 0 
-47 8 19 22 24 33 50 55 68 70 72 85 92 101 102 111 113 132 133 0 
-74 133 0 
-48 -75 15 30 32 83 105 126 129 -76 12 77 114 122 133 0 
-77 12 76 114 122 133 0 
-53 69 80 91 96 133 0 
-78 16 42 44 123 -26 82 133 0 
-79 98 133 0 
-80 53 69 91 96 133 0 
-81 133 0 
-11 -82 26 133 0 
-83 15 30 32 75 105 126 129 133 0 
-35 -84 52 88 117 133 0 
-35 -85 8 19 22 24 33 47 50 55 68 70 72 92 101 102 111 113 132 133 0 
-86 -3 133 0 
-87 133 0 
-35 -88 52 84 117 133 0 
-89 29 57 109 133 0 
-90 56 61 112 115 121 131 -2 -5 6 -11 133 0 
-77 12 76 114 122 133 0 
-91 53 69 80 96 133 0 
-92 8 19 22 24 33 47 50 55 68 70 72 85 101 102 111 113 132 133 0 
-8 19 22 24 33 47 50 55 68 70 72 85 92 101 102 111 113 132 133 0 
-12 76 77 114 122 133 0 
-68 8 19 22 24 33 47 50 55 70 72 85 92 101 102 111 113 132 133 0 
-93 133 0 
-94 -95 18 -26 82 133 0 
-48 -35 -96 53 69 80 91 133 0 
-4 34 -97 133 0 
-35 -6 5 133 0 
-98 79 133 0 
-99 13 23 -26 82 133 0 
-28 103 124 -49 25 37 38 39 40 59 110 118 119 120 -100 73 -26 82 133 0 
-4 34 -101 8 19 22 24 33 47 50 55 68 70 72 85 92 102 111 113 132 133 0 
-2 -11 133 0 
-25 37 38 39 40 49 59 110 118 119 120 -22 8 19 24 33 47 50 55 68 70 72 85 92 101 102 111 113 132 133 0 
-102 8 19 22 24 33 47 50 55 68 70 72 85 92 101 111 113 132 133 0 
-103 28 124 -65 27 125 -49 25 37 38 39 40 59 110 118 119 120 -57 29 89 109 133 0 
-48 -62 -25 37 38 39 40 49 59 110 118 119 120 -104 63 133 0 
-48 -49 25 37 38 39 40 59 110 118 119 120 -61 56 90 112 115 121 131 133 0 
-25 37 38 39 40 49 59 110 118 119 120 -19 8 22 24 33 47 50 55 68 70 72 85 92 101 102 111 113 132 133 0 
-105 15 30 32 75 83 126 129 -26 82 133 0 
-106 -26 82 133 0 
-48 -31 -18 95 -102 8 19 22 24 33 47 50 55 68 70 72 85 92 101 111 113 132 133 0 
-107 66 133 0 
-48 -94 -95 18 -26 82 133 0 
-108 -3 133 0 
-109 29 57 89 -26 82 133 0 
-28 103 124 -26 82 133 0 
-57 29 89 109 -51 -25 37 38 39 40 49 59 110 118 119 120 133 0 
-48 -110 25 37 38 39 40 49 59 118 119 120 -111 8 19 22 24 33 47 50 55 68 70 72 85 92 101 102 113 132 133 0 
-2 133 0 
-48 -110 25 37 38 39 40 49 59 118 119 120 -111 8 19 22 24 33 47 50 55 68 70 72 85 92 101 102 113 132 133 0 
-48 -49 25 37 38 39 40 59 110 118 119 120 -19 8 22 24 33 47 50 55 68 70 72 85 92 101 102 111 113 132 133 0 
-14 130 133 0 
-14 130 134 -54 -133 0 
-91 53 69 80 96 133 0 
-61 56 90 112 115 121 131 -2 -5 6 133 0 
-112 56 61 90 115 121 131 -7 133 0 
-113 8 19 22 24 33 47 50 55 68 70 72 85 92 101 102 111 132 133 0 
-19 8 22 24 33 47 50 55 68 70 72 85 92 101 102 111 113 132 133 0 
-114 12 76 77 122 133 0 
-1 9 -2 -82 26 -115 56 61 90 112 121 131 -11 133 0 
-4 34 -2 -3 133 0 
-116 133 0 
-117 52 84 88 133 0 
-118 25 37 38 39 40 49 59 110 119 120 133 0 
-4 34 -105 15 30 32 75 83 126 129 133 0 
-44 16 42 78 123 -4 34 133 0 
-119 25 37 38 39 40 49 59 110 118 120 133 0 
-120 25 37 38 39 40 49 59 110 118 119 133 0 
-92 8 19 22 24 33 47 50 55 68 70 72 85 101 102 111 113 132 133 0 
-112 56 61 90 115 121 131 -2 133 0 
-4 34 -2 -121 56 61 90 112 115 131 133 0 
-6 5 -2 133 0 
-61 56 90 112 115 121 131 133 0 
-42 16 44 78 123 -26 82 133 0 
-89 29 57 109 -11 133 0 
-122 12 76 77 114 133 0 
-2 -26 82 -11 133 0 
-76 12 77 114 122 133 0 
-123 16 42 44 78 -124 28 103 -125 27 65 -126 15 30 32 75 83 105 129 -127 128 134 -54 -133 0 
-126 15 30 32 75 83 105 129 -123 16 42 44 78 -128 127 134 -54 -133 0 
-129 15 30 32 75 83 105 126 134 -54 -133 0 
-58 -130 14 134 -54 -133 0 
-124 28 103 -126 15 30 32 75 83 105 129 133 0 
-131 56 61 90 112 115 121 133 0 
-124 28 103 -132 8 19 22 24 33 47 50 55 68 70 72 85 92 101 102 111 113 133 0 
